\ENCODING=ISO-8859-1
\Problem name: 

Maximize
 obj: x1 + x2 + x3 + x4 + x5 + x6 + x7 + x8 + x9 + x10 + x11 + x12 + x13 + x14
      + x15 + x16 + x17 + x18 + x19 + x20 + x21 + x22 + x23 + x24 + x25 + x26
      + x27 + x28 + x29 + x30 + x31 + x32 + x33 + x34 + x35 + x36 + x37 + x38
      + x39 + x40 + x41 + x42 + x43 + x44 + x45 + x46 + x47 + x48 + x49 + x50
      + x51 + x52 + x53 + x54 + x55 + x56 + x57 + x58 + x59 + x60 + x61 + x62
      + x63 + x64 + x65 + x66 + x67 + x68 + x69 + x70 + x71 + x72 + x73 + x74
      + x75 + x76 + x77 + x78 + x79 + x80 + x81 + x82 + x83 + x84 + x85 + x86
      + x87 + x88 + x89 + x90 + x91 + x92 + x93 + x94 + x95 + x96 + x97 + x98
      + x99 + x100 + x101 + x102 + x103 + x104 + x105 + x106 + x107 + x108
      + x109 + x110 + x111 + x112 + x113 + x114 + x115 + x116 + x117 + x118
      + x119 + x120 + x121 + x122 + x123 + x124 + x125 + x126 + x127 + x128
      + x129 + x130 + x131 + x132 + x133 + x134 + x135 + x136 + x137 + x138
      + x139 + x140 + x141 + x142 + x143 + x144 + x145 + x146 + x147 + x148
      + x149 + x150 + x151 + x152 + x153 + x154 + x155 + x156 + x157 + x158
      + x159 + x160 + x161 + x162 + x163 + x164 + x165 + x166 + x167 + x168
      + x169 + x170 + x171 + x172 + x173 + x174 + x175 + x176 + x177 + x178
      + x179 + x180 + x181 + x182 + x183 + x184 + x185 + x186 + x187 + x188
      + x189 + x190 + x191 + x192 + x193 + x194 + x195 + x196 + x197 + x198
      + x199 + x200
Subject To
 clq1:    x11 + x68 <= 1
 clq2:    x114 + x140 <= 1
 clq3:    x29 + x70 + x84 <= 1
 clq4:    x79 + x101 + x108 <= 1
 clq5:    x109 + x165 <= 1
 clq6:    x54 + x100 + x142 <= 1
 clq7:    x155 + x170 + x196 <= 1
 clq8:    x89 + x138 + x181 <= 1
 clq9:    x42 + x116 + x177 <= 1
 clq10:   x76 + x100 <= 1
 clq11:   x83 + x97 + x138 <= 1
 clq12:   x61 + x195 <= 1
 clq13:   x22 + x63 + x110 <= 1
 clq14:   x32 + x129 + x134 <= 1
 clq15:   x57 + x163 <= 1
 clq16:   x1 + x18 + x61 <= 1
 clq17:   x7 + x196 <= 1
 clq18:   x89 + x138 + x198 <= 1
 clq19:   x24 + x107 + x182 <= 1
 clq20:   x179 + x188 + x192 <= 1
 clq21:   x147 + x155 + x170 <= 1
 clq22:   x52 + x98 <= 1
 clq23:   x54 + x67 + x142 <= 1
 clq24:   x14 + x184 <= 1
 clq25:   x20 + x75 <= 1
 clq26:   x45 + x117 + x184 <= 1
 clq27:   x41 + x53 + x66 <= 1
 clq28:   x34 + x86 + x162 <= 1
 clq29:   x7 + x8 + x142 <= 1
 clq30:   x43 + x63 + x148 <= 1
 clq31:   x45 + x180 <= 1
 clq32:   x29 + x129 + x146 <= 1
 clq33:   x68 + x155 + x184 <= 1
 clq34:   x70 + x89 + x175 <= 1
 clq35:   x63 + x100 + x180 <= 1
 clq36:   x47 + x67 + x151 <= 1
 clq37:   x79 + x116 + x121 <= 1
 clq38:   x6 + x57 + x149 <= 1
 clq39:   x10 + x75 <= 1
 clq40:   x43 + x67 + x92 <= 1
 clq41:   x18 + x26 + x112 <= 1
 clq42:   x56 + x177 <= 1
 clq43:   x37 + x113 <= 1
 clq44:   x84 + x95 <= 1
 clq45:   x3 + x5 + x46 <= 1
 clq46:   x40 + x77 + x200 <= 1
 clq47:   x7 + x174 + x185 <= 1
 clq48:   x27 + x31 + x90 <= 1
 clq49:   x63 + x70 + x139 <= 1
 clq50:   x51 + x102 + x129 <= 1
 clq51:   x134 + x148 + x197 <= 1
 clq52:   x74 + x90 + x128 <= 1
 clq53:   x37 + x194 <= 1
 clq54:   x33 + x56 + x86 <= 1
 clq55:   x47 + x87 + x148 <= 1
 clq56:   x32 + x54 + x129 + x137 <= 1
 clq57:   x41 + x53 + x57 <= 1
 clq58:   x65 + x82 + x185 <= 1
 clq59:   x35 + x52 <= 1
 clq60:   x16 + x91 + x182 <= 1
 clq61:   x10 + x49 + x109 <= 1
 clq62:   x104 + x137 <= 1
 clq63:   x30 + x55 + x61 <= 1
 clq64:   x10 + x14 <= 1
 clq65:   x93 + x112 <= 1
 clq66:   x3 + x198 <= 1
 clq67:   x75 + x91 + x182 <= 1
 clq68:   x117 + x170 + x183 <= 1
 clq69:   x33 + x129 + x191 <= 1
 clq70:   x6 + x35 + x96 <= 1
 clq71:   x55 + x59 + x113 <= 1
 clq72:   x8 + x9 + x45 <= 1
 clq73:   x27 + x160 <= 1
 clq74:   x53 + x82 + x153 <= 1
 clq75:   x67 + x142 + x145 <= 1
 clq76:   x67 + x92 + x169 <= 1
 clq77:   x88 + x158 <= 1
 clq78:   x7 + x59 + x143 <= 1
 clq79:   x79 + x90 + x95 <= 1
 clq80:   x111 + x148 + x200 <= 1
 clq81:   x77 + x107 + x115 <= 1
 clq82:   x87 + x128 + x149 <= 1
 clq83:   x27 + x64 + x81 + x144 <= 1
 clq84:   x136 + x159 <= 1
 clq85:   x130 + x164 + x179 <= 1
 clq86:   x54 + x59 <= 1
 clq87:   x21 + x73 + x192 <= 1
 clq88:   x32 + x71 + x139 <= 1
 clq89:   x80 + x107 <= 1
 clq90:   x33 + x129 + x158 <= 1
 clq91:   x10 + x24 + x49 <= 1
 clq92:   x14 + x99 + x145 + x196 <= 1
 clq93:   x9 + x189 + x199 <= 1
 clq94:   x29 + x72 + x167 <= 1
 clq95:   x102 + x162 + x184 <= 1
 clq96:   x55 + x160 + x164 <= 1
 clq97:   x41 + x43 <= 1
 clq98:   x152 + x167 + x197 <= 1
 clq99:   x22 + x131 + x178 <= 1
 clq100:  x51 + x185 + x198 <= 1
 clq101:  x40 + x48 <= 1
 clq102:  x58 + x92 + x134 <= 1
 clq103:  x2 + x15 + x146 <= 1
 clq104:  x2 + x22 + x126 <= 1
 clq105:  x65 + x71 + x132 <= 1
 clq106:  x62 + x156 + x163 <= 1
 clq107:  x20 + x37 + x165 <= 1
 clq108:  x99 + x153 + x155 <= 1
 clq109:  x41 + x136 + x188 <= 1
 clq110:  x3 + x116 + x139 <= 1
 clq111:  x139 + x182 <= 1
 clq112:  x38 + x76 + x87 <= 1
 clq113:  x27 + x36 + x85 <= 1
 clq114:  x15 + x187 + x195 <= 1
 clq115:  x182 + x200 <= 1
 clq116:  x28 + x49 + x112 <= 1
 clq117:  x5 + x65 + x132 <= 1
 clq118:  x113 + x144 + x174 <= 1
 clq119:  x79 + x116 + x139 <= 1
 clq120:  x5 + x48 + x148 <= 1
 clq121:  x46 + x68 + x108 <= 1
 clq122:  x38 + x87 + x123 <= 1
 clq123:  x36 + x128 + x137 + x150 <= 1
 clq124:  x91 + x102 <= 1
 clq125:  x71 + x180 <= 1
 clq126:  x25 + x148 + x183 <= 1
 clq127:  x79 + x158 <= 1
 clq128:  x76 + x136 + x188 <= 1
 clq129:  x40 + x82 + x156 <= 1
 clq130:  x18 + x91 + x112 <= 1
 clq131:  x58 + x81 + x91 <= 1
 clq132:  x7 + x28 + x130 + x164 <= 1
 clq133:  x71 + x78 + x139 <= 1
 clq134:  x147 + x155 + x173 <= 1
 clq135:  x52 + x147 + x163 <= 1
 clq136:  x21 + x70 + x76 <= 1
 clq137:  x68 + x148 + x197 <= 1
 clq138:  x78 + x116 + x139 <= 1
 clq139:  x23 + x78 <= 1
 clq140:  x79 + x123 + x162 <= 1
 clq141:  x86 + x139 + x141 <= 1
 clq142:  x43 + x155 <= 1
 clq143:  x32 + x71 + x124 <= 1
 clq144:  x46 + x93 + x126 <= 1
 clq145:  x22 + x91 + x191 <= 1
 clq146:  x37 + x137 + x165 <= 1
 clq147:  x108 + x153 + x199 <= 1
 clq148:  x24 + x68 + x197 <= 1
 clq149:  x95 + x143 <= 1
 clq150:  x47 + x132 <= 1
 clq151:  x5 + x48 + x75 + x84 <= 1
 clq152:  x103 + x127 <= 1
 clq153:  x4 + x99 <= 1
 clq154:  x126 + x164 <= 1
 clq155:  x134 + x145 <= 1
 clq156:  x148 + x170 + x197 <= 1
 clq157:  x154 + x175 + x193 <= 1
 clq158:  x7 + x28 + x130 + x134 <= 1
 clq159:  x80 + x90 + x93 <= 1
 clq160:  x79 + x148 + x193 <= 1
 clq161:  x67 + x104 + x126 <= 1
 clq162:  x28 + x191 + x198 <= 1
 clq163:  x46 + x93 + x156 <= 1
 clq164:  x12 + x114 <= 1
 clq165:  x63 + x93 + x178 <= 1
 clq166:  x36 + x135 + x158 <= 1
 clq167:  x9 + x29 + x156 <= 1
 clq168:  x35 + x114 + x144 <= 1
 clq169:  x124 + x136 + x188 <= 1
 clq170:  x143 + x177 <= 1
 clq171:  x119 + x120 + x155 <= 1
 clq172:  x120 + x134 + x161 + x176 <= 1
 clq173:  x151 + x175 + x193 <= 1
 clq174:  x69 + x147 <= 1
 clq175:  x93 + x182 <= 1
 clq176:  x85 + x104 + x126 <= 1
 clq177:  x111 + x171 + x188 <= 1
 clq178:  x3 + x56 + x86 <= 1
 clq179:  x175 + x193 + x199 <= 1
 clq180:  x28 + x110 + x122 <= 1
 clq181:  x117 + x140 + x170 <= 1
 clq182:  x45 + x58 + x91 <= 1
 clq183:  x31 + x129 + x192 <= 1
 clq184:  x64 + x182 + x183 <= 1
 clq185:  x82 + x185 + x190 <= 1
 clq186:  x70 + x71 + x83 <= 1
 clq187:  x83 + x117 + x135 <= 1
 clq188:  x116 + x180 + x186 <= 1
 clq189:  x72 + x111 + x167 <= 1
 clq190:  x136 + x142 + x188 <= 1
 clq191:  x12 + x105 <= 1
 clq192:  x94 + x170 + x186 <= 1
 clq193:  x30 + x93 + x156 <= 1
 clq194:  x79 + x123 + x148 <= 1
 clq195:  x36 + x103 <= 1
 clq196:  x6 + x23 + x105 <= 1
 clq197:  x67 + x98 + x116 <= 1
 clq198:  x67 + x152 + x167 <= 1
 clq199:  x7 + x77 + x159 <= 1
 clq200:  x163 + x185 <= 1
 clq201:  x74 + x100 + x133 <= 1
 clq202:  x28 + x53 + x66 <= 1
 clq203:  x55 + x72 + x108 <= 1
 clq204:  x147 + x156 + x163 <= 1
 clq205:  x25 + x67 <= 1
 clq206:  x34 + x143 + x174 <= 1
 clq207:  x12 + x44 <= 1
 clq208:  x95 + x150 <= 1
 clq209:  x40 + x66 + x133 <= 1
 clq210:  x85 + x131 <= 1
 clq211:  x96 + x177 <= 1
 clq212:  x22 + x79 + x89 + x196 <= 1
 clq213:  x9 + x17 <= 1
 clq214:  x51 + x150 <= 1
 clq215:  x11 + x73 + x142 <= 1
 clq216:  x75 + x112 + x146 <= 1
 clq217:  x35 + x104 + x144 <= 1
 clq218:  x97 + x105 + x158 <= 1
 clq219:  x29 + x47 + x146 <= 1
 clq220:  x64 + x119 <= 1
 clq221:  x33 + x118 + x169 <= 1
 clq222:  x11 + x13 + x26 <= 1
 clq223:  x1 + x59 <= 1
 clq224:  x25 + x196 <= 1
 clq225:  x67 + x120 + x187 <= 1
 clq226:  x41 + x194 <= 1
 clq227:  x60 + x106 <= 1
 clq228:  x17 + x107 <= 1
 clq229:  x30 + x119 <= 1
 clq230:  x68 + x104 + x151 + x174 <= 1
 clq231:  x3 + x120 + x124 <= 1
 clq232:  x69 + x81 + x91 <= 1
 clq233:  x137 + x150 + x157 <= 1
 clq234:  x46 + x58 <= 1
 clq235:  x33 + x138 + x139 <= 1
 clq236:  x52 + x165 <= 1
 clq237:  x179 + x180 + x186 <= 1
 clq238:  x82 + x85 <= 1
 clq239:  x9 + x20 + x45 <= 1
 clq240:  x33 + x85 + x139 <= 1
 clq241:  x39 + x150 <= 1
 clq242:  x29 + x39 + x133 <= 1
 clq243:  x114 + x150 <= 1
 clq244:  x26 + x80 + x187 <= 1
 clq245:  x19 + x66 + x94 <= 1
 clq246:  x52 + x195 <= 1
 clq247:  x26 + x48 + x191 <= 1
 clq248:  x108 + x174 + x199 <= 1
 clq249:  x17 + x149 <= 1
 clq250:  x8 + x105 + x127 <= 1
 clq251:  x49 + x77 + x107 <= 1
 clq252:  x111 + x199 <= 1
 clq253:  x67 + x104 + x124 <= 1
 clq254:  x54 + x100 + x105 <= 1
 clq255:  x77 + x86 <= 1
 clq256:  x33 + x83 + x106 + x146 <= 1
 clq257:  x45 + x91 + x112 <= 1
 clq258:  x1 + x28 + x112 <= 1
 clq259:  x44 + x54 <= 1
 clq260:  x20 + x26 + x187 <= 1
 clq261:  x21 + x28 + x198 <= 1
 clq262:  x11 + x142 + x162 <= 1
 clq263:  x54 + x110 + x190 <= 1
 clq264:  x34 + x37 + x200 <= 1
 clq265:  x104 + x138 + x192 <= 1
 clq266:  x140 + x170 + x197 <= 1
 clq267:  x54 + x86 + x156 <= 1
 clq268:  x65 + x81 <= 1
 clq269:  x68 + x101 + x108 + x172 <= 1
 clq270:  x139 + x163 + x181 <= 1
 clq271:  x76 + x114 + x151 <= 1
 clq272:  x69 + x87 <= 1
 clq273:  x109 + x161 <= 1
 clq274:  x93 + x102 + x129 + x178 <= 1
 clq275:  x3 + x131 <= 1
 clq276:  x35 + x70 + x121 <= 1
 clq277:  x36 + x98 + x158 <= 1
 clq278:  x70 + x134 + x162 <= 1
 clq279:  x13 + x113 + x125 <= 1
 clq280:  x22 + x135 <= 1
 clq281:  x2 + x168 + x169 <= 1
 clq282:  x94 + x140 + x188 <= 1
 clq283:  x155 + x164 <= 1
 clq284:  x8 + x40 + x127 <= 1
 clq285:  x21 + x51 + x198 <= 1
 clq286:  x53 + x89 + x125 <= 1
 clq287:  x10 + x62 <= 1
 clq288:  x93 + x94 + x126 <= 1
 clq289:  x132 + x195 <= 1
 clq290:  x134 + x162 + x184 <= 1
 clq291:  x136 + x147 + x163 <= 1
 clq292:  x28 + x98 <= 1
 clq293:  x58 + x120 + x155 <= 1
 clq294:  x78 + x97 + x194 <= 1
 clq295:  x27 + x96 + x141 <= 1
 clq296:  x26 + x48 + x50 <= 1
 clq297:  x55 + x83 + x163 <= 1
 clq298:  x127 + x137 + x199 <= 1
 clq299:  x22 + x105 <= 1
 clq300:  x39 + x87 + x161 <= 1
 clq301:  x19 + x142 + x177 <= 1
 clq302:  x26 + x140 + x191 <= 1
 clq303:  x15 + x115 + x152 <= 1
 clq304:  x18 + x130 <= 1
 clq305:  x66 + x71 <= 1
 clq306:  x21 + x93 <= 1
 clq307:  x56 + x79 + x121 <= 1
 clq308:  x13 + x128 + x176 <= 1
 clq309:  x7 + x24 + x193 <= 1
 clq310:  x13 + x33 + x129 <= 1
 clq311:  x1 + x86 + x101 <= 1
 clq312:  x40 + x154 + x195 <= 1
 clq313:  x9 + x76 + x186 <= 1
 clq314:  x119 + x177 <= 1
 clq315:  x70 + x76 + x200 <= 1
 clq316:  x64 + x90 + x133 <= 1
 clq317:  x11 + x84 + x142 <= 1
 clq318:  x49 + x150 <= 1
 clq319:  x94 + x102 + x119 <= 1
 clq320:  x71 + x83 + x107 <= 1
 clq321:  x60 + x136 + x153 <= 1
 clq322:  x10 + x86 <= 1
 clq323:  x23 + x56 <= 1
 clq324:  x113 + x177 <= 1
 clq325:  x110 + x127 + x199 <= 1
 clq326:  x16 + x60 + x74 <= 1
 clq327:  x8 + x111 + x162 <= 1
 clq328:  x70 + x121 + x140 <= 1
 clq329:  x63 + x187 + x200 <= 1
 clq330:  x7 + x140 <= 1
 clq331:  x65 + x133 + x149 <= 1
 clq332:  x113 + x139 <= 1
 clq333:  x15 + x74 + x168 <= 1
 clq334:  x40 + x118 + x133 <= 1
 clq335:  x8 + x162 + x165 <= 1
 clq336:  x89 + x109 + x198 <= 1
 clq337:  x29 + x103 + x133 <= 1
 clq338:  x53 + x154 + x165 <= 1
 clq339:  x129 + x148 + x174 <= 1
 clq340:  x7 + x85 <= 1
 clq341:  x20 + x105 <= 1
 clq342:  x45 + x62 + x172 <= 1
 clq343:  x30 + x121 + x181 <= 1
 clq344:  x12 + x142 <= 1
 clq345:  x62 + x101 + x127 <= 1
 clq346:  x19 + x78 + x142 <= 1
 clq347:  x37 + x176 <= 1
 clq348:  x37 + x74 + x165 <= 1
 clq349:  x88 + x155 + x176 <= 1
 clq350:  x83 + x97 + x126 <= 1
 clq351:  x90 + x149 + x175 <= 1
 clq352:  x65 + x74 + x77 <= 1
 clq353:  x5 + x46 + x154 <= 1
 clq354:  x72 + x95 + x190 <= 1
 clq355:  x125 + x165 + x173 <= 1
 clq356:  x112 + x159 <= 1
 clq357:  x78 + x81 + x97 + x179 <= 1
 clq358:  x80 + x116 + x180 <= 1
 clq359:  x68 + x148 + x151 + x174 <= 1
 clq360:  x21 + x157 + x194 <= 1
 clq361:  x45 + x103 + x133 <= 1
 clq362:  x45 + x193 <= 1
 clq363:  x98 + x101 + x138 <= 1
 clq364:  x75 + x143 + x186 <= 1
 clq365:  x39 + x42 <= 1
 clq366:  x14 + x40 + x200 <= 1
 clq367:  x68 + x146 + x198 <= 1
 clq368:  x22 + x52 + x91 <= 1
 clq369:  x78 + x187 <= 1
 clq370:  x6 + x180 <= 1
 clq371:  x29 + x51 + x159 + x182 <= 1
 clq372:  x77 + x103 <= 1
 clq373:  x65 + x102 + x185 <= 1
 clq374:  x7 + x125 + x178 <= 1
 clq375:  x38 + x131 <= 1
 clq376:  x95 + x100 <= 1
 clq377:  x20 + x111 + x156 <= 1
 clq378:  x3 + x86 + x139 <= 1
 clq379:  x122 + x178 <= 1
 clq380:  x48 + x75 + x146 <= 1
 clq381:  x120 + x155 + x161 + x176 <= 1
 clq382:  x64 + x83 <= 1
 clq383:  x22 + x91 + x182 <= 1
 clq384:  x38 + x139 + x141 <= 1
 clq385:  x9 + x61 + x89 <= 1
 clq386:  x114 + x198 <= 1
 clq387:  x9 + x150 <= 1
 clq388:  x15 + x28 + x187 <= 1
 clq389:  x94 + x126 + x154 <= 1
 clq390:  x90 + x161 + x174 <= 1
 clq391:  x15 + x144 <= 1
 clq392:  x53 + x73 + x192 <= 1
 clq393:  x89 + x129 <= 1
 clq394:  x70 + x88 + x179 <= 1
 clq395:  x38 + x46 + x122 <= 1
 clq396:  x15 + x25 + x158 <= 1
 clq397:  x9 + x45 + x110 <= 1
 clq398:  x35 + x74 <= 1
 clq399:  x1 + x47 + x64 <= 1
 clq400:  x19 + x55 + x83 <= 1
 clq401:  x5 + x113 + x188 <= 1
 clq402:  x92 + x164 + x183 <= 1
 clq403:  x43 + x79 + x89 <= 1
 clq404:  x152 + x166 <= 1
 clq405:  x8 + x44 + x183 <= 1
 clq406:  x38 + x73 + x146 <= 1
 clq407:  x171 + x184 <= 1
 clq408:  x154 + x175 + x195 <= 1
 clq409:  x27 + x142 + x144 <= 1
 clq410:  x68 + x131 + x155 <= 1
 clq411:  x56 + x82 <= 1
 clq412:  x23 + x36 <= 1
 clq413:  x45 + x95 <= 1
 clq414:  x98 + x137 + x168 <= 1
 clq415:  x7 + x81 + x125 <= 1
 clq416:  x87 + x123 + x148 <= 1
 clq417:  x174 + x180 + x186 <= 1
 clq418:  x103 + x133 + x145 <= 1
 clq419:  x62 + x125 + x127 <= 1
 clq420:  x72 + x102 + x184 <= 1
 clq421:  x5 + x6 + x23 <= 1
 clq422:  x17 + x54 <= 1
 clq423:  x120 + x171 + x191 <= 1
 clq424:  x63 + x70 + x115 <= 1
 clq425:  x3 + x44 + x102 <= 1
 clq426:  x97 + x121 + x185 <= 1
 clq427:  x67 + x123 + x124 <= 1
 clq428:  x99 + x163 + x196 <= 1
 clq429:  x2 + x10 + x49 <= 1
 clq430:  x43 + x199 <= 1
 clq431:  x89 + x196 + x198 <= 1
 clq432:  x47 + x194 <= 1
 clq433:  x121 + x128 + x154 <= 1
 clq434:  x13 + x166 + x168 <= 1
 clq435:  x14 + x71 + x164 <= 1
 clq436:  x28 + x123 + x162 <= 1
 clq437:  x3 + x43 + x160 <= 1
 clq438:  x4 + x80 <= 1
 clq439:  x29 + x51 + x94 + x159 <= 1
 clq440:  x114 + x181 <= 1
 clq441:  x21 + x89 + x130 <= 1
 clq442:  x72 + x111 + x200 <= 1
 clq443:  x45 + x110 + x184 <= 1
 clq444:  x105 + x153 + x155 <= 1
 clq445:  x46 + x115 + x185 <= 1
 clq446:  x54 + x94 + x189 <= 1
 clq447:  x67 + x120 + x173 <= 1
 clq448:  x141 + x184 <= 1
 clq449:  x11 + x69 <= 1
 clq450:  x84 + x180 <= 1
 clq451:  x108 + x174 + x186 <= 1
 clq452:  x14 + x140 + x170 <= 1
 clq453:  x97 + x111 + x141 <= 1
 clq454:  x4 + x12 <= 1
 clq455:  x21 + x25 + x49 <= 1
 clq456:  x151 + x173 + x188 <= 1
 clq457:  x77 + x126 <= 1
 clq458:  x26 + x111 + x168 <= 1
 clq459:  x4 + x16 + x108 <= 1
 clq460:  x110 + x127 + x192 <= 1
 clq461:  x68 + x149 + x198 <= 1
 clq462:  x135 + x166 <= 1
 clq463:  x24 + x43 + x197 <= 1
 clq464:  x39 + x50 <= 1
 clq465:  x55 + x113 + x144 <= 1
 clq466:  x87 + x163 + x175 <= 1
 clq467:  x68 + x103 + x133 <= 1
 clq468:  x6 + x109 <= 1
 clq469:  x70 + x157 + x183 <= 1
 clq470:  x23 + x75 + x147 <= 1
 clq471:  x41 + x137 + x180 <= 1
 clq472:  x107 + x198 <= 1
 clq473:  x136 + x148 + x163 <= 1
 clq474:  x37 + x119 <= 1
 clq475:  x32 + x71 + x107 <= 1
 clq476:  x85 + x98 + x119 <= 1
 clq477:  x49 + x155 + x176 <= 1
 clq478:  x14 + x199 <= 1
 clq479:  x92 + x134 + x148 <= 1
 clq480:  x5 + x132 + x159 <= 1
 clq481:  x27 + x92 + x141 <= 1
 clq482:  x30 + x170 <= 1
 clq483:  x35 + x51 + x159 <= 1
 clq484:  x88 + x102 + x176 <= 1
 clq485:  x19 + x152 + x155 <= 1
 clq486:  x166 + x187 <= 1
 clq487:  x84 + x117 + x170 <= 1
 clq488:  x44 + x102 + x175 <= 1
 clq489:  x122 + x124 + x193 <= 1
 clq490:  x4 + x171 <= 1
 clq491:  x15 + x37 + x74 <= 1
 clq492:  x90 + x117 + x149 <= 1
 clq493:  x70 + x94 + x141 <= 1
 clq494:  x69 + x121 + x168 <= 1
 clq495:  x3 + x43 + x197 <= 1
 clq496:  x40 + x122 + x195 <= 1
 clq497:  x17 + x26 + x111 <= 1
 clq498:  x117 + x135 + x185 <= 1
 clq499:  x76 + x143 + x170 + x186 <= 1
 clq500:  x3 + x160 + x164 <= 1
 clq501:  x65 + x71 + x104 <= 1
 clq502:  x4 + x37 + x74 <= 1
 clq503:  x9 + x29 + x124 <= 1
 clq504:  x90 + x93 + x178 <= 1
 clq505:  x172 + x185 + x187 <= 1
 clq506:  x4 + x37 + x61 <= 1
 clq507:  x75 + x84 + x168 <= 1
 clq508:  x26 + x48 + x103 <= 1
 clq509:  x14 + x96 + x97 <= 1
 clq510:  x4 + x124 <= 1
 clq511:  x26 + x83 + x103 <= 1
 clq512:  x78 + x190 <= 1
 clq513:  x37 + x135 + x137 <= 1
 clq514:  x55 + x98 <= 1
 clq515:  x12 + x101 <= 1
 clq516:  x51 + x82 + x153 + x185 <= 1
 clq517:  x102 + x130 <= 1
 clq518:  x16 + x123 + x156 <= 1
 clq519:  x147 + x173 + x199 <= 1
 clq520:  x20 + x132 + x156 <= 1
 clq521:  x90 + x149 + x197 <= 1
 clq522:  x33 + x159 <= 1
 clq523:  x70 + x162 + x179 <= 1
 clq524:  x39 + x134 + x161 <= 1
 clq525:  x24 + x43 + x168 <= 1
 clq526:  x166 + x178 <= 1
 clq527:  x28 + x62 <= 1
 clq528:  x6 + x170 <= 1
 clq529:  x123 + x162 + x172 <= 1
 clq530:  x34 + x72 + x145 <= 1
 clq531:  x18 + x55 + x163 <= 1
 clq532:  x82 + x112 <= 1
 clq533:  x61 + x167 <= 1
 clq534:  x88 + x134 + x176 <= 1
 clq535:  x29 + x51 + x94 + x140 + x170 <= 1
 clq536:  x12 + x28 <= 1
 clq537:  x8 + x117 + x146 <= 1
 clq538:  x30 + x153 <= 1
 clq539:  x92 + x164 + x195 <= 1
 clq540:  x47 + x67 + x126 <= 1
 clq541:  x36 + x61 <= 1
 clq542:  x40 + x134 + x156 <= 1
 clq543:  x61 + x102 + x173 <= 1
 clq544:  x10 + x114 + x180 <= 1
 clq545:  x71 + x128 <= 1
 clq546:  x37 + x48 <= 1
 clq547:  x24 + x43 + x89 <= 1
 clq548:  x56 + x110 + x199 <= 1
 clq549:  x146 + x171 <= 1
 clq550:  x9 + x89 + x198 <= 1
 clq551:  x27 + x64 + x181 <= 1
 clq552:  x43 + x45 + x103 <= 1
 clq553:  x10 + x18 <= 1
 clq554:  x2 + x151 <= 1
 clq555:  x5 + x54 + x121 <= 1
 clq556:  x135 + x137 + x180 <= 1
 clq557:  x107 + x179 + x182 <= 1
 clq558:  x90 + x120 + x171 <= 1
 clq559:  x66 + x166 + x170 <= 1
 clq560:  x3 + x44 + x103 <= 1
 clq561:  x13 + x44 + x128 <= 1
 clq562:  x23 + x37 + x147 <= 1
 clq563:  x135 + x197 <= 1
 clq564:  x80 + x93 + x101 + x102 <= 1
 clq565:  x46 + x51 + x140 <= 1
 clq566:  x156 + x160 + x161 <= 1
 clq567:  x61 + x126 <= 1
 clq568:  x46 + x51 + x63 <= 1
 clq569:  x5 + x42 + x154 <= 1
 clq570:  x63 + x100 + x120 + x187 <= 1
 clq571:  x40 + x66 + x172 <= 1
 clq572:  x55 + x180 <= 1
 clq573:  x58 + x70 + x134 <= 1
 clq574:  x100 + x108 <= 1
 clq575:  x51 + x62 + x170 <= 1
 clq576:  x9 + x76 + x189 <= 1
 clq577:  x106 + x146 + x167 <= 1
 clq578:  x16 + x19 <= 1
 clq579:  x17 + x95 <= 1
 clq580:  x25 + x64 + x134 <= 1
 clq581:  x6 + x32 + x57 <= 1
 clq582:  x107 + x113 <= 1
 clq583:  x3 + x125 + x197 <= 1
 clq584:  x130 + x179 + x192 <= 1
 clq585:  x136 + x153 + x155 <= 1
 clq586:  x90 + x99 + x197 <= 1
 clq587:  x63 + x165 <= 1
 clq588:  x101 + x127 + x154 <= 1
 clq589:  x35 + x158 <= 1
 clq590:  x18 + x94 + x141 <= 1
 clq591:  x115 + x135 + x185 <= 1
 clq592:  x114 + x151 + x175 <= 1
 clq593:  x14 + x21 <= 1
 clq594:  x172 + x187 + x197 <= 1
 clq595:  x27 + x69 + x81 + x144 <= 1
 clq596:  x162 + x179 + x192 <= 1
 clq597:  x57 + x97 <= 1
 clq598:  x183 + x191 <= 1
 clq599:  x3 + x118 <= 1
 clq600:  x90 + x93 + x99 + x145 <= 1
 clq601:  x51 + x57 + x174 <= 1
 clq602:  x67 + x86 + x152 <= 1
 clq603:  x13 + x26 + x168 <= 1
 clq604:  x76 + x151 + x193 <= 1
 clq605:  x23 + x133 + x145 <= 1
 clq606:  x47 + x155 <= 1
 clq607:  x59 + x65 <= 1
 clq608:  x6 + x15 + x59 <= 1
 clq609:  x65 + x74 + x133 <= 1
 clq610:  x111 + x156 + x161 <= 1
 clq611:  x90 + x145 + x188 <= 1
 clq612:  x97 + x126 + x181 <= 1
 clq613:  x16 + x131 <= 1
 clq614:  x22 + x74 + x172 <= 1
 clq615:  x127 + x155 + x176 <= 1
 clq616:  x76 + x101 <= 1
 clq617:  x35 + x67 + x104 + x169 <= 1
 clq618:  x38 + x106 + x122 + x195 <= 1
 clq619:  x20 + x81 + x115 <= 1
 clq620:  x135 + x137 + x141 <= 1
 clq621:  x16 + x72 + x108 + x145 <= 1
 clq622:  x57 + x149 + x182 <= 1
 clq623:  x57 + x162 <= 1
 clq624:  x39 + x161 + x196 <= 1
 clq625:  x93 + x99 + x189 <= 1
 clq626:  x4 + x108 + x186 <= 1
 clq627:  x64 + x90 + x99 <= 1
 clq628:  x36 + x128 + x154 <= 1
 clq629:  x71 + x151 + x157 <= 1
 clq630:  x4 + x39 + x161 <= 1
 clq631:  x105 + x130 <= 1
 clq632:  x51 + x94 + x102 <= 1
 clq633:  x100 + x120 + x176 + x187 <= 1
 clq634:  x63 + x98 + x188 <= 1
 clq635:  x21 + x28 + x110 <= 1
 clq636:  x83 + x110 <= 1
 clq637:  x50 + x183 <= 1
 clq638:  x1 + x18 + x112 <= 1
 clq639:  x7 + x55 + x68 <= 1
 clq640:  x31 + x38 <= 1
 clq641:  x29 + x182 + x195 <= 1
 clq642:  x175 + x177 + x193 <= 1
 clq643:  x41 + x127 + x137 <= 1
 clq644:  x81 + x97 + x179 + x186 <= 1
 clq645:  x7 + x134 + x159 <= 1
 clq646:  x33 + x100 + x125 <= 1
 clq647:  x10 + x24 + x44 <= 1
 clq648:  x45 + x59 + x91 <= 1
 clq649:  x91 + x114 + x148 + x151 <= 1
 clq650:  x143 + x174 + x186 <= 1
 clq651:  x17 + x40 <= 1
 clq652:  x27 + x85 + x141 <= 1
 clq653:  x9 + x76 + x165 <= 1
 clq654:  x21 + x70 + x84 + x89 <= 1
 clq655:  x32 + x53 + x57 <= 1
 clq656:  x25 + x64 + x158 <= 1
 clq657:  x37 + x43 <= 1
 clq658:  x7 + x164 + x178 <= 1
 clq659:  x118 + x142 + x162 <= 1
 clq660:  x46 + x129 + x154 <= 1
 clq661:  x142 + x188 + x192 <= 1
 clq662:  x54 + x137 + x150 <= 1
 clq663:  x121 + x128 + x169 <= 1
 clq664:  x3 + x106 + x120 <= 1
 clq665:  x70 + x127 + x157 <= 1
 clq666:  x26 + x132 + x198 <= 1
 clq667:  x22 + x103 <= 1
 clq668:  x18 + x90 + x141 <= 1
 clq669:  x48 + x51 <= 1
 clq670:  x127 + x155 + x192 <= 1
 clq671:  x69 + x72 <= 1
 clq672:  x18 + x91 + x182 <= 1
 clq673:  x81 + x144 + x170 <= 1
 clq674:  x67 + x91 + x126 <= 1
 clq675:  x14 + x40 + x140 <= 1
 clq676:  x43 + x92 + x106 + x168 <= 1
 clq677:  x79 + x90 + x161 + x196 <= 1
 clq678:  x30 + x137 <= 1
 clq679:  x62 + x125 + x169 <= 1
 clq680:  x17 + x93 + x99 <= 1
 clq681:  x64 + x81 + x186 <= 1
 clq682:  x6 + x35 + x104 <= 1
 clq683:  x117 + x149 + x182 <= 1
 clq684:  x45 + x128 + x196 <= 1
 clq685:  x26 + x191 + x198 <= 1
 clq686:  x19 + x68 + x155 <= 1
 clq687:  x19 + x185 + x198 <= 1
 clq688:  x90 + x141 + x167 <= 1
 clq689:  x20 + x44 + x53 <= 1
 clq690:  x2 + x7 <= 1
 clq691:  x137 + x195 <= 1
 clq692:  x7 + x28 + x174 <= 1
 clq693:  x54 + x67 + x109 <= 1
 clq694:  x13 + x90 + x174 <= 1
 clq695:  x2 + x200 <= 1
 clq696:  x67 + x86 + x91 <= 1
 clq697:  x28 + x175 <= 1
 clq698:  x34 + x98 + x188 <= 1
 clq699:  x38 + x105 + x140 <= 1
 clq700:  x15 + x19 + x121 <= 1
 clq701:  x65 + x117 + x140 <= 1
 clq702:  x29 + x166 + x170 <= 1
 clq703:  x10 + x64 + x144 <= 1
 clq704:  x34 + x124 + x188 <= 1
 clq705:  x37 + x42 + x152 <= 1
 clq706:  x38 + x66 + x172 <= 1
 clq707:  x112 + x113 <= 1
 clq708:  x67 + x75 + x91 + x151 <= 1
 clq709:  x56 + x87 + x149 <= 1
 clq710:  x35 + x54 + x67 <= 1
 clq711:  x80 + x156 + x194 <= 1
 clq712:  x57 + x120 <= 1
 clq713:  x46 + x171 + x188 <= 1
 clq714:  x107 + x182 + x195 <= 1
 clq715:  x77 + x177 <= 1
 clq716:  x42 + x81 + x97 <= 1
 clq717:  x6 + x119 <= 1
 clq718:  x41 + x175 + x184 <= 1
 clq719:  x16 + x89 <= 1
 clq720:  x3 + x170 + x197 <= 1
 clq721:  x82 + x158 + x178 <= 1
 clq722:  x35 + x78 <= 1
 clq723:  x66 + x133 + x145 <= 1
 clq724:  x52 + x58 + x91 <= 1
 clq725:  x3 + x164 + x189 <= 1
 clq726:  x3 + x84 + x170 <= 1
 clq727:  x67 + x75 + x91 + x112 <= 1
 clq728:  x32 + x79 + x187 <= 1
 clq729:  x101 + x102 + x173 <= 1
 clq730:  x11 + x188 + x189 <= 1
 clq731:  x25 + x78 <= 1
 clq732:  x128 + x140 + x176 <= 1
 clq733:  x10 + x49 + x144 <= 1
 clq734:  x56 + x57 + x149 <= 1
 clq735:  x3 + x111 + x166 <= 1
 clq736:  x10 + x113 + x114 + x144 <= 1
 clq737:  x41 + x123 + x137 <= 1
 clq738:  x62 + x79 + x121 <= 1
 clq739:  x16 + x105 + x140 <= 1
 clq740:  x16 + x164 <= 1
 clq741:  x96 + x141 + x188 <= 1
 clq742:  x113 + x126 <= 1
 clq743:  x40 + x47 + x67 <= 1
 clq744:  x80 + x89 + x116 <= 1
 clq745:  x119 + x169 <= 1
 clq746:  x46 + x59 + x122 <= 1
 clq747:  x42 + x66 + x170 <= 1
 clq748:  x63 + x100 + x110 <= 1
 clq749:  x15 + x59 + x168 <= 1
 clq750:  x150 + x157 + x183 <= 1
 clq751:  x16 + x72 + x190 <= 1
 clq752:  x96 + x118 <= 1
 clq753:  x46 + x51 + x122 <= 1
 clq754:  x54 + x156 + x194 <= 1
 clq755:  x41 + x46 + x188 <= 1
 clq756:  x64 + x158 + x167 <= 1
 clq757:  x16 + x108 + x182 <= 1
 clq758:  x5 + x48 + x70 + x84 <= 1
 clq759:  x29 + x70 + x85 <= 1
 clq760:  x1 + x50 <= 1
 clq761:  x90 + x187 + x197 <= 1
 clq762:  x75 + x147 + x151 <= 1
 clq763:  x65 + x88 + x134 <= 1
 clq764:  x3 + x46 + x50 <= 1
 clq765:  x27 + x90 + x145 <= 1
 clq766:  x117 + x153 + x199 <= 1
 clq767:  x95 + x195 <= 1
 clq768:  x22 + x41 + x143 <= 1
 clq769:  x23 + x30 + x50 + x55 <= 1
 clq770:  x6 + x19 + x104 <= 1
 clq771:  x8 + x15 + x187 <= 1
 clq772:  x77 + x106 <= 1
 clq773:  x52 + x108 <= 1
 clq774:  x54 + x156 + x160 <= 1
 clq775:  x80 + x90 + x138 <= 1
 clq776:  x1 + x69 <= 1
 clq777:  x14 + x149 <= 1
 clq778:  x76 + x99 + x189 <= 1
 clq779:  x169 + x179 + x191 <= 1
 clq780:  x107 + x115 + x182 <= 1
 clq781:  x52 + x91 + x151 + x166 <= 1
 clq782:  x68 + x146 + x190 <= 1
 clq783:  x41 + x187 <= 1
 clq784:  x5 + x23 + x159 <= 1
 clq785:  x3 + x103 + x189 <= 1
 clq786:  x5 + x60 <= 1
 clq787:  x96 + x139 + x141 <= 1
 clq788:  x11 + x88 <= 1
 clq789:  x5 + x46 + x108 <= 1
 clq790:  x25 + x185 <= 1
 clq791:  x54 + x67 + x86 <= 1
 clq792:  x147 + x178 + x199 <= 1
 clq793:  x103 + x171 + x185 <= 1
 clq794:  x41 + x119 <= 1
 clq795:  x2 + x22 + x31 <= 1
 clq796:  x38 + x152 + x197 <= 1
 clq797:  x5 + x6 + x57 <= 1
 clq798:  x5 + x42 + x156 <= 1
 clq799:  x44 + x72 + x172 <= 1
 clq800:  x63 + x110 + x200 <= 1
 clq801:  x159 + x199 <= 1
 clq802:  x70 + x88 + x157 <= 1
 clq803:  x17 + x30 + x93 <= 1
 clq804:  x50 + x143 <= 1
 clq805:  x141 + x158 + x167 <= 1
 clq806:  x22 + x144 <= 1
 clq807:  x62 + x81 + x125 + x163 <= 1
 clq808:  x3 + x153 + x160 <= 1
 clq809:  x6 + x40 + x47 <= 1
 clq810:  x86 + x132 + x156 <= 1
 clq811:  x41 + x132 <= 1
 clq812:  x3 + x15 + x158 <= 1
 clq813:  x19 + x82 + x185 <= 1
 clq814:  x11 + x26 + x42 <= 1
 clq815:  x35 + x159 + x160 <= 1
 clq816:  x74 + x148 <= 1
 clq817:  x98 + x176 <= 1
 clq818:  x17 + x78 + x99 <= 1
 clq819:  x65 + x102 + x173 <= 1
 clq820:  x92 + x169 + x179 <= 1
 clq821:  x80 + x176 + x187 <= 1
 clq822:  x15 + x59 + x187 <= 1
 clq823:  x80 + x82 + x116 <= 1
 clq824:  x36 + x187 <= 1
 clq825:  x7 + x77 + x100 <= 1
 clq826:  x62 + x169 + x170 <= 1
 clq827:  x76 + x82 <= 1
 clq828:  x95 + x189 <= 1
 clq829:  x129 + x148 + x192 <= 1
 clq830:  x123 + x166 <= 1
 clq831:  x53 + x168 + x177 <= 1
 clq832:  x76 + x145 + x151 + x188 <= 1
 clq833:  x188 + x190 <= 1
 clq834:  x69 + x100 + x176 <= 1
 clq835:  x5 + x121 + x173 <= 1
 clq836:  x1 + x47 + x84 <= 1
 clq837:  x18 + x76 <= 1
 clq838:  x5 + x54 + x156 <= 1
 clq839:  x23 + x54 + x105 <= 1
 clq840:  x93 + x101 + x127 <= 1
 clq841:  x14 + x60 + x69 <= 1
 clq842:  x38 + x106 + x146 <= 1
 clq843:  x3 + x84 + x112 <= 1
 clq844:  x24 + x36 <= 1
 clq845:  x112 + x161 <= 1
 clq846:  x26 + x72 + x116 <= 1
 clq847:  x105 + x127 + x155 <= 1
 clq848:  x19 + x30 + x121 <= 1
 clq849:  x1 + x86 + x162 <= 1
 clq850:  x93 + x106 + x145 <= 1
 clq851:  x39 + x113 <= 1
 clq852:  x48 + x70 + x157 <= 1
 clq853:  x95 + x152 <= 1
 clq854:  x35 + x80 + x159 <= 1
 clq855:  x90 + x141 + x188 <= 1
 clq856:  x40 + x136 + x154 <= 1
 clq857:  x1 + x68 + x96 + x198 <= 1
 clq858:  x29 + x59 <= 1
 clq859:  x23 + x55 + x68 + x197 <= 1
 clq860:  x107 + x179 + x192 <= 1
 clq861:  x72 + x73 + x184 <= 1
 clq862:  x60 + x94 + x102 <= 1
 clq863:  x35 + x125 + x197 <= 1
 clq864:  x49 + x125 <= 1
 clq865:  x71 + x93 + x98 <= 1
 clq866:  x76 + x88 + x193 <= 1
 clq867:  x90 + x149 + x171 <= 1
 clq868:  x26 + x58 <= 1
 clq869:  x13 + x125 + x149 <= 1
 clq870:  x90 + x93 + x171 <= 1
 clq871:  x105 + x145 + x155 <= 1
 clq872:  x44 + x102 + x168 <= 1
 clq873:  x9 + x25 <= 1
 clq874:  x164 + x171 <= 1
 clq875:  x79 + x90 + x187 <= 1
 clq876:  x22 + x32 + x91 <= 1
 clq877:  x85 + x126 + x157 <= 1
 clq878:  x129 + x146 + x178 <= 1
 clq879:  x19 + x111 + x126 <= 1
 clq880:  x19 + x126 + x152 <= 1
 clq881:  x1 + x84 + x142 <= 1
 clq882:  x19 + x94 + x104 + x126 <= 1
 clq883:  x21 + x195 <= 1
 clq884:  x9 + x106 <= 1
 clq885:  x2 + x141 <= 1
 clq886:  x54 + x121 + x181 <= 1
 clq887:  x120 + x155 + x190 <= 1
 clq888:  x37 + x96 <= 1
 clq889:  x98 + x125 <= 1
 clq890:  x68 + x101 + x184 <= 1
 clq891:  x72 + x111 + x133 <= 1
 clq892:  x38 + x89 + x111 + x141 <= 1
 clq893:  x55 + x59 + x122 <= 1
 clq894:  x3 + x153 + x194 <= 1
 clq895:  x118 + x150 <= 1
 clq896:  x1 + x8 + x142 + x162 <= 1
 clq897:  x39 + x92 + x134 <= 1
 clq898:  x20 + x26 + x50 <= 1
 clq899:  x27 + x44 <= 1
 clq900:  x128 + x134 + x176 <= 1
 clq901:  x98 + x106 + x168 <= 1
 clq902:  x74 + x77 + x100 <= 1
 clq903:  x7 + x143 + x164 <= 1
 clq904:  x7 + x8 + x87 <= 1
 clq905:  x38 + x45 + x172 <= 1
 clq906:  x70 + x85 + x139 + x141 <= 1
 clq907:  x81 + x97 + x106 + x144 <= 1
 clq908:  x20 + x142 <= 1
 clq909:  x2 + x29 + x80 <= 1
 clq910:  x22 + x74 + x110 + x199 <= 1
 clq911:  x15 + x153 + x199 <= 1
 clq912:  x131 + x132 <= 1
 clq913:  x55 + x86 <= 1
 clq914:  x25 + x49 + x158 <= 1
 clq915:  x70 + x97 + x175 + x179 <= 1
 clq916:  x39 + x52 + x91 + x166 <= 1
 clq917:  x85 + x111 + x126 <= 1
 clq918:  x36 + x112 + x115 <= 1
 clq919:  x51 + x82 + x182 <= 1
 clq920:  x42 + x81 + x170 <= 1
 clq921:  x4 + x37 + x147 <= 1
 clq922:  x64 + x90 + x175 <= 1
 clq923:  x38 + x111 + x156 <= 1
 clq924:  x41 + x57 + x127 <= 1
 clq925:  x33 + x67 + x151 + x191 <= 1
 clq926:  x99 + x138 + x168 <= 1
 clq927:  x138 + x165 <= 1
 clq928:  x109 + x132 + x198 <= 1
 clq929:  x114 + x151 + x161 <= 1
 clq930:  x30 + x131 <= 1
 clq931:  x27 + x31 + x52 <= 1
 clq932:  x67 + x92 + x109 <= 1
 clq933:  x78 + x117 + x153 <= 1
 clq934:  x110 + x170 + x186 <= 1
 clq935:  x3 + x69 + x103 <= 1
 clq936:  x22 + x31 + x182 <= 1
 clq937:  x47 + x64 + x158 <= 1
 clq938:  x93 + x147 + x156 <= 1
 clq939:  x52 + x134 + x180 <= 1
 clq940:  x74 + x179 <= 1
 clq941:  x36 + x112 + x146 <= 1
 clq942:  x40 + x113 + x118 <= 1
 clq943:  x97 + x121 + x181 <= 1
 clq944:  x85 + x115 + x136 <= 1
 clq945:  x6 + x131 <= 1
 clq946:  x18 + x25 + x166 <= 1
 clq947:  x7 + x24 + x164 <= 1
 clq948:  x60 + x171 <= 1
 clq949:  x54 + x81 <= 1
 clq950:  x81 + x112 + x186 <= 1
 clq951:  x36 + x140 + x188 <= 1
 clq952:  x47 + x148 + x197 <= 1
 clq953:  x18 + x92 + x141 <= 1
 clq954:  x4 + x63 + x98 <= 1
 clq955:  x39 + x134 + x197 <= 1
 clq956:  x2 + x80 + x180 <= 1
 clq957:  x1 + x28 + x110 <= 1
 clq958:  x29 + x124 + x133 <= 1
 clq959:  x89 + x122 + x138 <= 1
 clq960:  x5 + x46 + x173 + x188 <= 1
 clq961:  x16 + x105 + x158 <= 1
 clq962:  x53 + x93 + x106 <= 1
 clq963:  x135 + x137 + x185 <= 1
 clq964:  x49 + x61 <= 1
 clq965:  x2 + x112 + x165 <= 1
 clq966:  x65 + x123 <= 1
 clq967:  x72 + x153 + x160 <= 1
 clq968:  x67 + x116 + x126 <= 1
 clq969:  x63 + x81 + x115 <= 1
 clq970:  x36 + x73 + x109 <= 1
 clq971:  x39 + x91 + x191 <= 1
 clq972:  x45 + x64 + x133 <= 1
 clq973:  x46 + x123 + x176 <= 1
 clq974:  x90 + x99 + x145 + x196 <= 1
 clq975:  x78 + x150 <= 1
 clq976:  x48 + x50 + x155 <= 1
 clq977:  x27 + x69 + x194 <= 1
 clq978:  x68 + x101 + x172 + x197 <= 1
 clq979:  x51 + x102 + x173 <= 1
 clq980:  x104 + x194 <= 1
 clq981:  x31 + x116 <= 1
 clq982:  x132 + x185 + x198 <= 1
 clq983:  x7 + x60 + x193 <= 1
 clq984:  x39 + x64 + x186 <= 1
 clq985:  x58 + x134 + x146 <= 1
 clq986:  x33 + x37 <= 1
 clq987:  x150 + x168 + x177 <= 1
 clq988:  x6 + x34 <= 1
 clq989:  x117 + x182 + x183 <= 1
 clq990:  x131 + x167 <= 1
 clq991:  x41 + x152 <= 1
 clq992:  x96 + x97 + x101 <= 1
 clq993:  x154 + x161 <= 1
 clq994:  x11 + x167 <= 1
 clq995:  x57 + x128 + x149 <= 1
 clq996:  x155 + x180 <= 1
 clq997:  x143 + x181 <= 1
 clq998:  x77 + x186 <= 1
 clq999:  x9 + x147 + x199 <= 1
 clq1000: x19 + x78 + x179 <= 1
 clq1001: x65 + x88 + x133 <= 1
 clq1002: x37 + x152 + x165 <= 1
 clq1003: x68 + x175 + x184 <= 1
 clq1004: x6 + x18 <= 1
 clq1005: x26 + x116 + x132 <= 1
 clq1006: x13 + x41 <= 1
 clq1007: x118 + x193 <= 1
 clq1008: x90 + x138 + x200 <= 1
 clq1009: x98 + x106 + x167 <= 1
 clq1010: x36 + x109 + x188 <= 1
 clq1011: x55 + x79 + x83 <= 1
 clq1012: x14 + x97 + x181 <= 1
 clq1013: x22 + x32 + x110 + x186 <= 1
 clq1014: x81 + x106 + x195 <= 1
 clq1015: x27 + x90 + x120 <= 1
 clq1016: x8 + x101 + x117 <= 1
 clq1017: x18 + x55 + x61 + x173 <= 1
 clq1018: x41 + x117 + x184 <= 1
 clq1019: x103 + x179 <= 1
 clq1020: x38 + x76 + x146 <= 1
 clq1021: x68 + x133 + x174 <= 1
 clq1022: x44 + x126 <= 1
 clq1023: x60 + x94 + x141 <= 1
 clq1024: x35 + x67 + x143 + x169 <= 1
 clq1025: x67 + x91 + x120 + x191 <= 1
 clq1026: x3 + x13 + x160 <= 1
 clq1027: x19 + x139 + x155 <= 1
 clq1028: x5 + x12 + x83 <= 1
 clq1029: x135 + x159 <= 1
 clq1030: x48 + x70 + x115 <= 1
 clq1031: x85 + x91 + x126 <= 1
 clq1032: x78 + x165 <= 1
 clq1033: x48 + x49 + x155 <= 1
 clq1034: x73 + x169 + x179 <= 1
 clq1035: x81 + x91 + x112 <= 1
 clq1036: x97 + x111 + x126 <= 1
 clq1037: x34 + x37 + x87 <= 1
 clq1038: x16 + x60 + x193 <= 1
 clq1039: x129 + x134 + x146 <= 1
 clq1040: x87 + x125 + x163 <= 1
 clq1041: x26 + x50 + x80 <= 1
 clq1042: x24 + x97 <= 1
 clq1043: x5 + x154 + x189 <= 1
 clq1044: x33 + x73 + x169 <= 1
 clq1045: x70 + x89 + x141 <= 1
 clq1046: x29 + x140 + x176 <= 1
 clq1047: x86 + x134 + x156 + x161 <= 1
 clq1048: x26 + x27 <= 1
 clq1049: x7 + x164 + x189 <= 1
 clq1050: x89 + x122 + x196 <= 1
 clq1051: x37 + x87 + x149 <= 1
 clq1052: x35 + x169 + x175 <= 1
 clq1053: x66 + x75 <= 1
 clq1054: x8 + x131 + x142 <= 1
 clq1055: x8 + x49 + x111 <= 1
 clq1056: x7 + x42 + x81 <= 1
 clq1057: x67 + x91 + x114 + x151 <= 1
 clq1058: x71 + x92 + x164 <= 1
 clq1059: x114 + x178 <= 1
 clq1060: x2 + x106 + x146 <= 1
 clq1061: x17 + x123 <= 1
 clq1062: x88 + x139 + x155 <= 1
 clq1063: x57 + x135 <= 1
Bounds
 0 <= x1 <= 1
 0 <= x2 <= 1
 0 <= x3 <= 1
 0 <= x4 <= 1
 0 <= x5 <= 1
 0 <= x6 <= 1
 0 <= x7 <= 1
 0 <= x8 <= 1
 0 <= x9 <= 1
 0 <= x10 <= 1
 0 <= x11 <= 1
 0 <= x12 <= 1
 0 <= x13 <= 1
 0 <= x14 <= 1
 0 <= x15 <= 1
 0 <= x16 <= 1
 0 <= x17 <= 1
 0 <= x18 <= 1
 0 <= x19 <= 1
 0 <= x20 <= 1
 0 <= x21 <= 1
 0 <= x22 <= 1
 0 <= x23 <= 1
 0 <= x24 <= 1
 0 <= x25 <= 1
 0 <= x26 <= 1
 0 <= x27 <= 1
 0 <= x28 <= 1
 0 <= x29 <= 1
 0 <= x30 <= 1
 0 <= x31 <= 1
 0 <= x32 <= 1
 0 <= x33 <= 1
 0 <= x34 <= 1
 0 <= x35 <= 1
 0 <= x36 <= 1
 0 <= x37 <= 1
 0 <= x38 <= 1
 0 <= x39 <= 1
 0 <= x40 <= 1
 0 <= x41 <= 1
 0 <= x42 <= 1
 0 <= x43 <= 1
 0 <= x44 <= 1
 0 <= x45 <= 1
 0 <= x46 <= 1
 0 <= x47 <= 1
 0 <= x48 <= 1
 0 <= x49 <= 1
 0 <= x50 <= 1
 0 <= x51 <= 1
 0 <= x52 <= 1
 0 <= x53 <= 1
 0 <= x54 <= 1
 0 <= x55 <= 1
 0 <= x56 <= 1
 0 <= x57 <= 1
 0 <= x58 <= 1
 0 <= x59 <= 1
 0 <= x60 <= 1
 0 <= x61 <= 1
 0 <= x62 <= 1
 0 <= x63 <= 1
 0 <= x64 <= 1
 0 <= x65 <= 1
 0 <= x66 <= 1
 0 <= x67 <= 1
 0 <= x68 <= 1
 0 <= x69 <= 1
 0 <= x70 <= 1
 0 <= x71 <= 1
 0 <= x72 <= 1
 0 <= x73 <= 1
 0 <= x74 <= 1
 0 <= x75 <= 1
 0 <= x76 <= 1
 0 <= x77 <= 1
 0 <= x78 <= 1
 0 <= x79 <= 1
 0 <= x80 <= 1
 0 <= x81 <= 1
 0 <= x82 <= 1
 0 <= x83 <= 1
 0 <= x84 <= 1
 0 <= x85 <= 1
 0 <= x86 <= 1
 0 <= x87 <= 1
 0 <= x88 <= 1
 0 <= x89 <= 1
 0 <= x90 <= 1
 0 <= x91 <= 1
 0 <= x92 <= 1
 0 <= x93 <= 1
 0 <= x94 <= 1
 0 <= x95 <= 1
 0 <= x96 <= 1
 0 <= x97 <= 1
 0 <= x98 <= 1
 0 <= x99 <= 1
 0 <= x100 <= 1
 0 <= x101 <= 1
 0 <= x102 <= 1
 0 <= x103 <= 1
 0 <= x104 <= 1
 0 <= x105 <= 1
 0 <= x106 <= 1
 0 <= x107 <= 1
 0 <= x108 <= 1
 0 <= x109 <= 1
 0 <= x110 <= 1
 0 <= x111 <= 1
 0 <= x112 <= 1
 0 <= x113 <= 1
 0 <= x114 <= 1
 0 <= x115 <= 1
 0 <= x116 <= 1
 0 <= x117 <= 1
 0 <= x118 <= 1
 0 <= x119 <= 1
 0 <= x120 <= 1
 0 <= x121 <= 1
 0 <= x122 <= 1
 0 <= x123 <= 1
 0 <= x124 <= 1
 0 <= x125 <= 1
 0 <= x126 <= 1
 0 <= x127 <= 1
 0 <= x128 <= 1
 0 <= x129 <= 1
 0 <= x130 <= 1
 0 <= x131 <= 1
 0 <= x132 <= 1
 0 <= x133 <= 1
 0 <= x134 <= 1
 0 <= x135 <= 1
 0 <= x136 <= 1
 0 <= x137 <= 1
 0 <= x138 <= 1
 0 <= x139 <= 1
 0 <= x140 <= 1
 0 <= x141 <= 1
 0 <= x142 <= 1
 0 <= x143 <= 1
 0 <= x144 <= 1
 0 <= x145 <= 1
 0 <= x146 <= 1
 0 <= x147 <= 1
 0 <= x148 <= 1
 0 <= x149 <= 1
 0 <= x150 <= 1
 0 <= x151 <= 1
 0 <= x152 <= 1
 0 <= x153 <= 1
 0 <= x154 <= 1
 0 <= x155 <= 1
 0 <= x156 <= 1
 0 <= x157 <= 1
 0 <= x158 <= 1
 0 <= x159 <= 1
 0 <= x160 <= 1
 0 <= x161 <= 1
 0 <= x162 <= 1
 0 <= x163 <= 1
 0 <= x164 <= 1
 0 <= x165 <= 1
 0 <= x166 <= 1
 0 <= x167 <= 1
 0 <= x168 <= 1
 0 <= x169 <= 1
 0 <= x170 <= 1
 0 <= x171 <= 1
 0 <= x172 <= 1
 0 <= x173 <= 1
 0 <= x174 <= 1
 0 <= x175 <= 1
 0 <= x176 <= 1
 0 <= x177 <= 1
 0 <= x178 <= 1
 0 <= x179 <= 1
 0 <= x180 <= 1
 0 <= x181 <= 1
 0 <= x182 <= 1
 0 <= x183 <= 1
 0 <= x184 <= 1
 0 <= x185 <= 1
 0 <= x186 <= 1
 0 <= x187 <= 1
 0 <= x188 <= 1
 0 <= x189 <= 1
 0 <= x190 <= 1
 0 <= x191 <= 1
 0 <= x192 <= 1
 0 <= x193 <= 1
 0 <= x194 <= 1
 0 <= x195 <= 1
 0 <= x196 <= 1
 0 <= x197 <= 1
 0 <= x198 <= 1
 0 <= x199 <= 1
 0 <= x200 <= 1
Binaries
 x1  x2  x3  x4  x5  x6  x7  x8  x9  x10  x11  x12  x13  x14  x15  x16  x17 
 x18  x19  x20  x21  x22  x23  x24  x25  x26  x27  x28  x29  x30  x31  x32 
 x33  x34  x35  x36  x37  x38  x39  x40  x41  x42  x43  x44  x45  x46  x47 
 x48  x49  x50  x51  x52  x53  x54  x55  x56  x57  x58  x59  x60  x61  x62 
 x63  x64  x65  x66  x67  x68  x69  x70  x71  x72  x73  x74  x75  x76  x77 
 x78  x79  x80  x81  x82  x83  x84  x85  x86  x87  x88  x89  x90  x91  x92 
 x93  x94  x95  x96  x97  x98  x99  x100  x101  x102  x103  x104  x105  x106 
 x107  x108  x109  x110  x111  x112  x113  x114  x115  x116  x117  x118  x119 
 x120  x121  x122  x123  x124  x125  x126  x127  x128  x129  x130  x131  x132 
 x133  x134  x135  x136  x137  x138  x139  x140  x141  x142  x143  x144  x145 
 x146  x147  x148  x149  x150  x151  x152  x153  x154  x155  x156  x157  x158 
 x159  x160  x161  x162  x163  x164  x165  x166  x167  x168  x169  x170  x171 
 x172  x173  x174  x175  x176  x177  x178  x179  x180  x181  x182  x183  x184 
 x185  x186  x187  x188  x189  x190  x191  x192  x193  x194  x195  x196  x197 
 x198  x199  x200 
End
